70
    1    72    70
    2     4    11
    3    66    61
    4    33    38
    5    28    21
    6    56    58
    7    59    66
    8    59    62
    9    30    32
   10    40    33
   11    20    24
   12    68    66
   13    16    23
   14    66    61
   15    14    17
   16     5     7
   17     5     2
   18    45    41
   19    40    42
   20    12     9
   21    39    42
   22    63    58
   23     1     3
   24     8     5
   25     1     1
   26    33    33
   27    15    21
   28    41    40
   29    62    56
   30    41    46
   31    52    50
   32    22    28
   33    71    64
   34    27    34
   35    58    61
   36    57    50
   37     8    15
   38    40    37
   39    66    65
   40     1     7
   41    35    40
   42    47    44
   43     1     1
   44    68    64
   45    44    40
   46    16    13
   47    10     4
   48    69    62
   49     9     6
   50    17    11
   51    12    15
   52    46    47
   53    71    66
   54    58    61
   55    31    29
   56    31    34
   57    24    22
   58    42    37
   59     4     1
   60    36    31
   61    38    41
   62    35    33
   63    15     8
   64    58    63
   65    63    56
   66    47    43
   67     6     9
   68    17    13
   69    43    45
   70    31    38
71
